400
750
599
598
597
596
595
594
594
594
593
590
589
588
588
588
586
585
583
583
582
581
577
571
570
570
570
564
564
563
562
562
561
561
561
561
559
558
558
558
557
556
556
556
555
554
554
553
552
552
549
547
543
539
536
535
535
535
533
533
533
532
532
529
529
529
527
526
522
521
521
521
520
520
519
517
514
509
508
508
502
499
497
496
496
495
491
490
488
487
486
485
484
482
480
479
479
476
476
475
474
474
472
472
471
470
469
465
464
463
463
463
460
459
457
457
455
455
451
450
449
448
447
447
447
446
446
446
442
441
441
440
438
437
437
437
436
435
433
432
431
430
426
424
422
421
419
419
418
416
413
412
412
406
403
402
401
401
401
394
394
393
392
390
388
385
384
383
383
376
376
374
374
374
368
367
366
363
362
360
357
355
354
354
353
352
351
350
346
345
343
340
338
337
335
335
334
331
331
331
330
329
326
322
322
320
319
318
318
317
315
315
314
313
312
311
309
308
307
306
304
304
303
302
297
296
295
295
294
293
290
290
289
287
286
285
284
282
282
281
280
278
276
275
274
274
272
272
269
268
268
266
266
266
265
263
263
262
259
256
254
253
252
251
243
243
242
241
235
233
231
231
230
229
228
226
225
224
223
223
221
220
219
218
215
215
214
214
212
210
209
207
206
206
204
202
201
201
200
197
196
195
194
192
191
190
188
187
187
186
184
183
183
183
182
180
179
176
175
174
173
170
166
165
162
162
161
159
156
156
154
152
152
151
150
149
149
148
147
147
147
147
145
145
144
144
143
142
142
141
139
135
134
134
132
132
131
131
130
129
127
126
126
126
125
122
118
117
117
116
115
115
113
112
112
111
110
110
107
107
107
105
104
104
104
104
102
99
97
96
95
90
89
88
88
87
85
85
83
81
80
76
